(set-logic QF_S)
(declare-fun T_SELECT_16 () Bool)
(declare-fun T_b4 () Bool)
(declare-fun T_b5 () Bool)
(declare-fun I0_268 () Int)
(declare-fun I0_272 () Int)
(declare-fun I1_268 () Int)
(declare-fun I1_272 () Int)
(declare-fun I2_268 () Int)
(declare-fun I2_272 () Int)
(declare-fun PCTEMP_LHS_70 () Int)
(declare-fun T_b9 () Int)
(declare-fun T0_263 () String)
(declare-fun T1_263 () String)
(declare-fun T_b2 () String)
(assert (= T_b2 (str.++ T0_263 T1_263)))
(assert (not (str.in.re T1_263 (str.to.re "="))))
(assert T_b5)
(assert (= T_b5 (not T_b4)))
(assert (= T_b4 (= PCTEMP_LHS_70 (- 1))))
(assert (= I0_268 (- PCTEMP_LHS_70 0)))
(assert (>= PCTEMP_LHS_70 0))
(assert (= I2_268 I1_268))
(assert (<= PCTEMP_LHS_70 I1_268))
(assert (>= I2_272 T_b9))
(assert (= I2_272 I1_272))
(assert (<= I2_272 I1_272))
(assert (= I0_272 (- I2_272 T_b9)))
(assert (>= T_b9 0))
(assert (= T_b9 (+ PCTEMP_LHS_70 1)))
(assert (= PCTEMP_LHS_70 (- 1)))
(assert (= T_SELECT_16 (not (= PCTEMP_LHS_70 (- 1)))))
(assert (= 0 (str.len T0_263))) ; len 0
(assert (not T_SELECT_16))
(check-sat)
